p wcnf 154 68 1
1 -1 9 
1 -2 10 
1 -3 11 
1 -4 12 
1 -5 13 
1 -6 14 
1 -7 15 
1 -8 16 
1 -17 1 
1 -18 1 
1 -19 1 
1 -20 1 
1 -21 1 
1 -22 1 
1 -23 1 
1 -24 1 
1 -17 25 
1 -17 26 
1 -17 27 
1 -17 28 
1 -17 29 
1 -17 30 
1 -17 31 
1 -18 26 
1 -18 27 
1 -18 28 
1 -18 29 
1 -18 30 
1 -18 31 
1 -18 32 
1 -19 27 
1 -19 28 
1 -19 29 
1 -19 30 
1 -19 31 
1 -19 32 
1 -19 33 
1 -20 28 
1 -20 29 
1 -20 30 
1 -20 31 
1 -20 32 
1 -20 33 
1 -20 34 
1 -21 29 
1 -21 30 
1 -21 31 
1 -21 32 
1 -21 33 
1 -21 34 
1 -21 35 
1 -22 30 
1 -22 31 
1 -22 32 
1 -22 33 
1 -22 34 
1 -22 35 
1 -22 36 
1 -23 31 
1 -23 32 
1 -23 33 
1 -23 34 
1 -23 35 
1 -23 36 
1 -23 37 
1 -24 32 
1 -24 33 
1 -24 34 
1 -24 35 
1 -24 36 
1 -24 37 
1 -24 38 
1 -39 1 
1 -40 1 
1 -41 1 
1 -42 1 
1 -43 1 
1 -44 1 
1 -45 1 
1 -46 1 
1 -39 47 
1 -39 48 
1 -39 49 
1 -39 50 
1 -39 51 
1 -39 52 
1 -39 53 
1 -39 54 
1 -40 48 
1 -40 49 
1 -40 50 
1 -40 51 
1 -40 52 
1 -40 53 
1 -40 54 
1 -40 55 
1 -41 49 
1 -41 50 
1 -41 51 
1 -41 52 
1 -41 53 
1 -41 54 
1 -41 55 
1 -41 56 
1 -42 50 
1 -42 51 
1 -42 52 
1 -42 53 
1 -42 54 
1 -42 55 
1 -42 56 
1 -42 57 
1 -43 51 
1 -43 52 
1 -43 53 
1 -43 54 
1 -43 55 
1 -43 56 
1 -43 57 
1 -43 58 
1 -44 52 
1 -44 53 
1 -44 54 
1 -44 55 
1 -44 56 
1 -44 57 
1 -44 58 
1 -44 59 
1 -45 53 
1 -45 54 
1 -45 55 
1 -45 56 
1 -45 57 
1 -45 58 
1 -45 59 
1 -45 60 
1 -46 54 
1 -46 55 
1 -46 56 
1 -46 57 
1 -46 58 
1 -46 59 
1 -46 60 
1 -46 61 
1 -62 17 
1 -63 17 
1 -62 64 
1 -62 65 
1 -63 65 
1 -63 66 
1 -67 39 62 
1 -67 68 
1 17 18 19 20 21 22 23 24 39 40 41 42 43 44 45 46 
1 17 18 19 20 21 22 23 24 39 40 41 42 43 44 45 46 62 63 
1 68 
